NAME : pairopt
TYPE : ACVRP
DIMENSION : 5
EDGE_WEIGHT_TYPE : EXPLICIT
EDGE_WEIGHT_FORMAT : FULL_MATRIX
CAPACITY : 401
VEHICLES : 2
EDGE_WEIGHT_SECTION
100000 -100000 -100000 100000 100000 
100000 100000 1000000 1569 1800 
100000 1000000 100000 1999 2223 
0 0 0 100000 1068 
0 0 0 1068 100000 
DEMAND_SECTION
1 0
2 0
3 0
4 493
5 42
DEPOT_SECTION
1
EOF